
Gurobi 9.1.2 (linux64) logging started Thu Apr  7 16:37:36 2022

Changed value of parameter LogFile to /home/DAVIDSON/doflocco/Graph_Pebbling/results/lemke square/ls-bounds/v-(0,7)/ls_sym_v-(0,7).log
   Prev:   Default: 
Changed value of parameter MIPFocus to 1
   Prev: 0  Min: 0  Max: 3  Default: 0
Changed value of parameter TimeLimit to 10800.0
   Prev: inf  Min: 0.0  Max: inf  Default: inf
Warning: variable name "X[(2, 0),(2, 2)]" has a space
Warning: constraint name "flow-constr-t0-v(2, 7)" has a space
Warning: to let Gurobi read it back, use rlp format
Gurobi Optimizer version 9.1.2 build v9.1.2rc0 (linux64)
Thread count: 32 physical cores, 64 logical processors, using up to 32 threads
Optimize a model with 4839 rows, 4352 columns and 16576 nonzeros
Model fingerprint: 0x3ac574c5
Variable types: 512 continuous, 3840 integer (3840 binary)
Coefficient statistics:
  Matrix range     [1e+00, 7e+04]
  Objective range  [1e-01, 1e-01]
  Bounds range     [1e+00, 3e+04]
  RHS range        [1e+00, 7e+04]
Presolve removed 323 rows and 336 columns
Presolve time: 0.09s
Presolved: 4516 rows, 4016 columns, 22450 nonzeros
Variable types: 512 continuous, 3504 integer (3504 binary)

Root relaxation: objective 6.400000e+01, 150 iterations, 0.00 seconds

    Nodes    |    Current Node    |     Objective Bounds      |     Work
 Expl Unexpl |  Obj  Depth IntInf | Incumbent    BestBd   Gap | It/Node Time

     0     0   64.00000    0   52          -   64.00000      -     -    0s
     0     0   64.00000    0   75          -   64.00000      -     -    0s
     0     0   64.00000    0   99          -   64.00000      -     -    0s
     0     0   64.00000    0   40          -   64.00000      -     -    0s
     0     0   64.00000    0   42          -   64.00000      -     -    0s
     0     0   64.00000    0   32          -   64.00000      -     -    0s
     0     0   64.00000    0   36          -   64.00000      -     -    0s
H    0     0                     904.3749999   64.00000  92.9%     -    0s
     0     0   64.00000    0   30  904.37500   64.00000  92.9%     -    0s
H    0     0                     902.9999999   64.00000  92.9%     -    0s
H    0     0                     763.0000000   64.00000  91.6%     -    0s
H    0     0                     727.0000000   64.00000  91.2%     -    0s
H    0     0                     726.6250000   64.00000  91.2%     -    0s
     0     0   64.00000    0   40  726.62500   64.00000  91.2%     -    0s
     0     0   64.00000    0   42  726.62500   64.00000  91.2%     -    0s
H    0     0                     428.9375000   64.00000  85.1%     -    1s
H    0     0                     264.3750000   64.00000  75.8%     -    1s
H    0     0                     258.6250000   64.00000  75.3%     -    1s
H    0     2                     126.0000000   64.00000  49.2%     -    1s
     0     2   64.00000    0   36  126.00000   64.00000  49.2%     -    1s
H    1     4                     111.5340909   64.00000  42.6%   612    1s
H    2     4                      95.5931818   64.00000  33.0%   308    1s
H   31    64                      94.7825000   64.00000  32.5%  43.5    2s
H   32    64                      94.2750000   64.00000  32.1%  42.2    2s
H   34    64                      93.2500000   64.00000  31.4%  39.8    2s
H   35    64                      89.9000000   64.00000  28.8%  38.7    2s
H   36    64                      87.4040698   64.00000  26.8%  37.7    2s
H   54    64                      87.0902778   64.00000  26.5%  29.1    2s
H   95   128                      81.4186508   64.00000  21.4%  20.0    4s
H   96   128                      79.9839744   64.00000  20.0%  19.8    4s
H   97   128                      75.3659722   64.00000  15.1%  19.6    4s
H  106   128                      75.2230903   64.00000  14.9%  18.4    4s
H  117   128                      73.2045455   64.00000  12.6%  17.1    4s
H  127   160                      72.8390805   64.00000  12.1%  16.2    4s
H  134   160                      72.7864583   64.00000  12.1%  15.5    4s
H  138   160                      72.7500000   64.00000  12.0%  15.2    4s
H  140   160                      72.5000000   64.00000  11.7%  15.0    4s
H  152   160                      72.2500000   64.00000  11.4%  14.2    4s
   159   192   64.00000    9   63   72.25000   64.00000  11.4%  14.0    6s
H  160   192                      72.1250000   64.00000  11.3%  13.9    6s
H  164   192                      71.5625000   64.00000  10.6%  13.9    6s
H  169   192                      71.5250000   64.00000  10.5%  13.8    6s
H  637   658                      70.2500000   64.00000  8.90%   7.3    7s
H  641   658                      69.5000000   64.00000  7.91%   7.3    7s
H  644   658                      69.4250000   64.00000  7.81%   7.3    7s
H  660   658                      69.3437500   64.00000  7.71%   7.2    7s
H  688  1290                      69.0625000   64.00000  7.33%   7.0    7s
H 1309  1322                      68.2515873   64.00000  6.23%   5.3    9s
H 1309  1322                      68.1925000   64.00000  6.15%   5.3    9s
H 1310  1322                      67.9562500   64.00000  5.82%   5.3    9s
H 1314  1322                      67.8267241   64.00000  5.64%   5.3    9s
H 1324  1322                      67.7352941   64.00000  5.51%   5.3    9s
H 1330  1322                      67.6819620   64.00000  5.44%   5.3    9s
H 1331  1322                      67.6741071   64.00000  5.43%   5.3    9s
H 1332  1322                      67.3656250   64.00000  5.00%   5.3    9s
H 1341  1354                      67.1250000   64.00000  4.66%   5.3   10s
H 1342  1354                      66.9968750   64.00000  4.47%   5.3   10s
H 1344  1354                      66.7031250   64.00000  4.05%   5.3   10s
H 1347  1354                      66.5000000   64.00000  3.76%   5.2   10s
H 1349  1354                      66.4934211   64.00000  3.75%   5.2   10s
H 1362  1354                      66.1703540   64.00000  3.28%   5.2   10s
H 1373  1895                      66.0681818   64.00000  3.13%   5.2   11s
H 1427  1895                      66.0000000   64.00000  3.03%   5.2   11s
H 1678  1895                      65.7750000   64.00000  2.70%   6.4   11s
H 1944  2921                      65.5000000   64.00000  2.29%   6.7   13s
  2993  8568   64.00000  105   77   65.50000   64.00000  2.29%   9.1   15s
H 3507  8568                      65.2897727   64.00000  1.98%   9.7   15s
H 8688  8599                      64.6875000   64.00000  1.06%  14.0   16s
H 8689  8599                      64.6250000   64.00000  0.97%  14.2   16s
H 8690  8392                      64.2500000   64.00000  0.39%  14.2   16s
H 8700  1832                      64.0000000   64.00000  0.00%  14.2   16s

Cutting planes:
  Learned: 1
  Cover: 34
  Implied bound: 35
  Clique: 2
  MIR: 1
  Flow cover: 22
  GUB cover: 1
  Relax-and-lift: 2

Explored 8765 nodes (135809 simplex iterations) in 16.78 seconds
Thread count was 32 (of 64 available processors)

Solution count 10: 64 64.25 64.625 ... 66.1704

Optimal solution found (tolerance 1.00e-04)
Best objective 6.399999999992e+01, best bound 6.399999999992e+01, gap 0.0000%
